lbl,CUST NO.,READY TIME,XCOORD.,YCOORD.,DEMAND,DUE DATE,SERVICE TIME
9,62,23,74,93,20,203,90
9,131,26,74,96,30,206,90
9,30,32,84,99,20,212,90
9,44,119,74,99,20,299,90
9,102,211,76,99,20,391,90
9,146,303,77,100,20,483,90
9,68,397,80,97,10,577,90
9,76,492,78,92,30,672,90
